# created by fftool

units real
boundary p p p

atom_style full
bond_style harmonic
angle_style harmonic

special_bonds lj/coul 0.0 0.0 0.5

pair_style hybrid lj/cut/coul/long 10.0 10.0 airebo 3.0
pair_modify mix geometric tail yes
kspace_style pppm 1.0e-5

read_data atom_data.lmp

# remove pair style if not using hybrid 
pair_coeff * * airebo CH.airebo_real C C C C NULL NULL NULL NULL NULL NULL 
#pair_coeff	1	1	lj/cut/coul/long	0.015652	3.4	10
pair_coeff	1	2	lj/cut/coul/long	0.015652	3.4	10
pair_coeff	1	3	lj/cut/coul/long	0.015652	3.4	10
pair_coeff	1	4	lj/cut/coul/long	0.015652	3.4	10
pair_coeff	1	5	lj/cut/coul/long	0.0515833	3.32415	10
pair_coeff	1	6	lj/cut/coul/long	0.0321408	3.44964	10
pair_coeff	1	7	lj/cut/coul/long	0.0405396	3.57071	10
pair_coeff	1	8	lj/cut/coul/long	0.0573317	3.17238	10
pair_coeff	1	9	lj/cut/coul/long	0.0216693	2.91548	10
pair_coeff	1	10	lj/cut/coul/long	0.0153225	2.86845	10
#pair_coeff	2	2	lj/cut/coul/long	0.015652	3.4	10
pair_coeff	2	3	lj/cut/coul/long	0.015652	3.4	10
pair_coeff	2	4	lj/cut/coul/long	0.015652	3.4	10
pair_coeff	2	5	lj/cut/coul/long	0.0515833	3.32415	10
pair_coeff	2	6	lj/cut/coul/long	0.0321408	3.44964	10
pair_coeff	2	7	lj/cut/coul/long	0.0405396	3.57071	10
pair_coeff	2	8	lj/cut/coul/long	0.0573317	3.17238	10
pair_coeff	2	9	lj/cut/coul/long	0.0216693	2.91548	10
pair_coeff	2	10	lj/cut/coul/long	0.0153225	2.86845	10
#pair_coeff	3	3	lj/cut/coul/long	0.015652	3.4	10
pair_coeff	3	4	lj/cut/coul/long	0.015652	3.4	10
pair_coeff	3	5	lj/cut/coul/long	0.0515833	3.32415	10
pair_coeff	3	6	lj/cut/coul/long	0.0321408	3.44964	10
pair_coeff	3	7	lj/cut/coul/long	0.0405396	3.57071	10
pair_coeff	3	8	lj/cut/coul/long	0.0573317	3.17238	10
pair_coeff	3	9	lj/cut/coul/long	0.0216693	2.91548	10
pair_coeff	3	10	lj/cut/coul/long	0.0153225	2.86845	10
#pair_coeff	4	4	lj/cut/coul/long	0.015652	3.4	10
pair_coeff	4	5	lj/cut/coul/long	0.0515833	3.32415	10
pair_coeff	4	6	lj/cut/coul/long	0.0321408	3.44964	10
pair_coeff	4	7	lj/cut/coul/long	0.0405396	3.57071	10
pair_coeff	4	8	lj/cut/coul/long	0.0573317	3.17238	10
pair_coeff	4	9	lj/cut/coul/long	0.0216693	2.91548	10
pair_coeff	4	10	lj/cut/coul/long	0.0153225	2.86845	10
pair_coeff	5	5	lj/cut/coul/long	0.17	3.25	10
pair_coeff	5	6	lj/cut/coul/long	0.105925	3.37268	10
pair_coeff	5	7	lj/cut/coul/long	0.133604	3.49106	10
pair_coeff	5	8	lj/cut/coul/long	0.188944	3.10161	10
pair_coeff	5	9	lj/cut/coul/long	0.0714143	2.85044	10
pair_coeff	5	10	lj/cut/coul/long	0.0504975	2.80446	10
pair_coeff	6	6	lj/cut/coul/long	0.066	3.5	10
pair_coeff	6	7	lj/cut/coul/long	0.0832466	3.62284	10
pair_coeff	6	8	lj/cut/coul/long	0.117729	3.2187	10
pair_coeff	6	9	lj/cut/coul/long	0.0444972	2.95804	10
pair_coeff	6	10	lj/cut/coul/long	0.0314643	2.91033	10
pair_coeff	7	7	lj/cut/coul/long	0.105	3.75	10
pair_coeff	7	8	lj/cut/coul/long	0.148492	3.33167	10
pair_coeff	7	9	lj/cut/coul/long	0.0561249	3.06186	10
pair_coeff	7	10	lj/cut/coul/long	0.0396863	3.01247	10
pair_coeff	8	8	lj/cut/coul/long	0.21	2.96	10
pair_coeff	8	9	lj/cut/coul/long	0.0793725	2.72029	10
pair_coeff	8	10	lj/cut/coul/long	0.0561249	2.67642	10
pair_coeff	9	9	lj/cut/coul/long	0.03	2.5	10
pair_coeff	9	10	lj/cut/coul/long	0.0212132	2.45967	10
pair_coeff	10	10	lj/cut/coul/long	0.015	2.42	10

# ---------- Define Groups  ----------
group groupA type 5 6 7 8 9 10
group groupB type 1
group groupC type 2
group groupD type 3
group groupE type 4

timestep 0.01

# ---------- Neighbor Settings ----------
neighbor 3.5 bin
neigh_modify delay 0 every 1 check yes

velocity all create 300.0 12345 dist gaussian mom yes rot yes  # Initialize velocities at 300 K

# ---------- NPT Equilibration (Constant Temperature and Pressure) ----------
dump TRAJ_NPT all custom 500 dump_npt_exfoliation.lammpstrj id mol type x y z vx vy vz
fix 1 all npt temp 300 300 100.0 aniso 1.0 1.0 1000.0  # Apply pressure control and maintain constant temperature at 300 K
thermo_style custom step time temp pe ke etotal press vol
thermo 50000
run 1500000 
write_restart restart_npt.lmp # Adjust the number of steps as needed
undump TRAJ_NPT
unfix 1  # Unfix NPT

# ---------- NVT Equilibration (Constant Temperature) ----------
fix 2 all nvt temp 300 300 100.0  # Apply NVT to maintain temperature at 300 K
dump TRAJ_NVT all custom 1000 dump_nvt_stabilized.lammpstrj id mol type x y z vx vy vz
thermo_style custom step time temp pe ke etotal press vol
thermo 50000
run 1000000 
write_restart restart_nvt.lmp # Adjust the number of steps as needed
undump TRAJ_NVT
unfix 2  # Unfix NVT after equilibration

# ---------- NVE Equilibration (Constant Volume and Energy) ----------
dump TRAJ_NVE all custom 100 dump_nve_initial_continue.lammpstrj id mol type q x y z vx vy vz
fix 3 all nve
thermo_style custom step time temp pe ke etotal press vol
thermo 50000
run 1000000 
write_restart restart_nve.lmp
undump TRAJ_NVE 
#unfix 3 

# ---------- Compute Potential Energy for ALL Groups from A to E----------
compute pe_groupA groupA pe/atom  # Potential energy per atom in Group A
compute peA_total groupA reduce sum c_pe_groupA  # Total potential energy for Group A

compute pe_groupB groupB pe/atom  # Potential energy per atom in Group B
compute peB_total groupB reduce sum c_pe_groupB  # Total potential energy for Group B

compute pe_groupC groupC pe/atom  # Potential energy per atom in Group C
compute peC_total groupC reduce sum c_pe_groupC  # Total potential energy for Group C

compute pe_groupD groupD pe/atom  # Potential energy per atom in Group D
compute peD_total groupD reduce sum c_pe_groupD  # Total potential energy for Group D

compute pe_groupE groupE pe/atom  # Potential energy per atom in Group E
compute peE_total groupE reduce sum c_pe_groupE  # Total potential energy for Group E

# ---------- Compute Interaction Energy Between Groups ----------
compute interactionBC groupB group/group groupC
compute interactionBD groupB group/group groupD
compute interactionBE groupB group/group groupE
compute interactionCD groupC group/group groupD
compute interactionCE groupC group/group groupE
compute interactionDE groupD group/group groupE

# ---------- Output Averages for Potential Energy ----------
fix ave_peA all ave/time 100 1 100 c_peA_total file PE_groupA.txt mode scalar
fix ave_peB all ave/time 100 1 100 c_peB_total file PE_groupB.txt mode scalar
fix ave_peC all ave/time 100 1 100 c_peC_total file PE_groupC.txt mode scalar
fix ave_peD all ave/time 100 1 100 c_peD_total file PE_groupD.txt mode scalar
fix ave_peE all ave/time 100 1 100 c_peE_total file PE_groupE.txt mode scalar
fix ave_interactionBC all ave/time 100 1 100 c_interactionBC file Interaction_BC.txt mode scalar
fix ave_interactionBD all ave/time 100 1 100 c_interactionBD file Interaction_BD.txt mode scalar
fix ave_interactionBE all ave/time 100 1 100 c_interactionBE file Interaction_BE.txt mode scalar
fix ave_interactionCD all ave/time 100 1 100 c_interactionCD file Interaction_CD.txt mode scalar
fix ave_interactionCE all ave/time 100 1 100 c_interactionCE file Interaction_CE.txt mode scalar
fix ave_interactionDE all ave/time 100 1 100 c_interactionDE file Interaction_DE.txt mode scalar

# ---------- MSD Calculation for Groups ----------
compute MSD_groupA groupA msd  # Compute MSD for Group A (solvent)
fix ave_MSD_A groupA ave/time 100 1 100 c_MSD_groupA[4] file msd_groupA_output.txt mode scalar  # Ensure this is correct for total MSD

compute MSD_groupB groupB msd  # Compute MSD for Group B (graphene)
fix ave_MSD_B groupB ave/time 100 1 100 c_MSD_groupB[4] file msd_groupB_output.txt mode scalar

compute MSD_groupC groupC msd  # Compute MSD for Group C (graphene)
fix ave_MSD_C groupC ave/time 100 1 100 c_MSD_groupC[4] file msd_groupC_output.txt mode scalar

compute MSD_groupD groupD msd  # Compute MSD for Group D (graphene)
fix ave_MSD_D groupD ave/time 100 1 100 c_MSD_groupD[4] file msd_groupD_output.txt mode scalar

compute MSD_groupE groupE msd  # Compute MSD for Group E (graphene)
fix ave_MSD_E groupE ave/time 100 1 100 c_MSD_groupE[4] file msd_groupE_output.txt mode scalar

# ---------- RDF Calculation for Group B individual atoms (Type 1 vs Type 1 of group B) ----------
compute myRDF_A1 groupB rdf 100 1 1 cutoff 10.0
fix ave_RDF_A1 groupB ave/time 100 1 100 c_myRDF_A1[*] file rdf_groupA_11.txt mode vector

# ---------- RDF Calculation for Group C individual atoms (Type 2 vs Type 2 of group C) ----------
compute myRDF_A2 groupC rdf 100 2 2 cutoff 10.0
fix ave_RDF_A2 groupC ave/time 100 1 100 c_myRDF_A2[*] file rdf_groupA_22.txt mode vector

# ---------- RDF Calculation for Group D individual atoms (Type 3 vs Type 3 of group D) ----------
compute myRDF_A3 groupD rdf 100 3 3 cutoff 10.0
fix ave_RDF_A3 groupD ave/time 100 1 100 c_myRDF_A3[*] file rdf_groupA_33.txt mode vector

# ---------- RDF Calculation for Group E individual atoms (Type 4 vs Type 4 of group E) ----------
compute myRDF_A4 groupE rdf 100 4 4 cutoff 10.0
fix ave_RDF_A4 groupE ave/time 100 1 100 c_myRDF_A4[*] file rdf_groupA_44.txt mode vector

# ---------- RDF Calculation for Group A individual atoms (Type 5 vs Type 5 of group A) ----------
compute myRDF_A5 groupA rdf 100 5 5 cutoff 10.0
fix ave_RDF_A5 groupA ave/time 100 1 100 c_myRDF_A5[*] file rdf_groupA_55.txt mode vector

# ---------- RDF Calculation for Group A individual atoms (Type 6 vs Type 6 of group A) ----------
compute myRDF_A6 groupA rdf 100 6 6 cutoff 10.0
fix ave_RDF_A6 groupA ave/time 100 1 100 c_myRDF_A6[*] file rdf_groupA_66.txt mode vector

# ---------- RDF Calculation for Group A individual atoms (Type 7 vs Type 7 of group A) ----------
compute myRDF_A7 groupA rdf 100 7 7 cutoff 10.0
fix ave_RDF_A7 groupA ave/time 100 1 100 c_myRDF_A7[*] file rdf_groupA_77.txt mode vector

# ---------- RDF Calculation for Group A individual atoms (Type 8 vs Type 8 of group A) ----------
compute myRDF_A8 groupA rdf 100 8 8 cutoff 10.0
fix ave_RDF_A8 groupA ave/time 100 1 100 c_myRDF_A8[*] file rdf_groupA_88.txt mode vector

# ---------- RDF Calculation for Group A individual atoms (Type 9 vs Type 9 of group A) ----------
compute myRDF_A9 groupA rdf 100 9 9 cutoff 10.0
fix ave_RDF_A9 groupA ave/time 100 1 100 c_myRDF_A9[*] file rdf_groupA_99.txt mode vector

# ---------- RDF Calculation for Group A individual atoms (TType 10 vs Type 10 of group A) ----------
compute myRDF_A10 groupA rdf 300 10 10 cutoff 10.0
fix ave_RDF_A10 groupA ave/time 100 1 100 c_myRDF_A10[*] file rdf_groupA_1010.txt mode vector

# ---------- RDF Calculation for Group BCDE individual Sheets (Type 1234 vs Type 1234 of group BCDE) ----------
compute myRDF_BC all rdf 100 1 2 cutoff 10.0
fix 1BC all ave/time 100 1 100 c_myRDF_BC[*] file rdf_outputBC.txt mode vector

compute myRDF_BD all rdf 100 1 3 cutoff 10.0
fix 1BD all ave/time 100 1 100 c_myRDF_BD[*] file rdf_outputBD.txt mode vector

compute myRDF_BE all rdf 100 1 4 cutoff 10.0
fix 1BE all ave/time 100 1 100 c_myRDF_BE[*] file rdf_outputBE.txt mode vector

compute myRDF_CD all rdf 100 2 3 cutoff 10.0
fix 1CD all ave/time 100 1 100 c_myRDF_CD[*] file rdf_outputCD.txt mode vector

compute myRDF_CE all rdf 100 2 4 cutoff 10.0
fix 1CE all ave/time 100 1 100 c_myRDF_CE[*] file rdf_outputCE.txt mode vector

compute myRDF_DE all rdf 100 3 4 cutoff 10.0
fix 1DE all ave/time 100 1 100 c_myRDF_DE[*] file rdf_outputDE.txt mode vector

# ---------- Run the Simulation ----------
run 1000000  # Adjust the number of steps based on your simulation needs

# ---------- Final Configuration Output ----------
write_data data.final.lmp  # Save final configuration to a data file

